proof_res/hipspec/synduce-list-mts_and_mps_hom.out
File processed.
Depth 1: 25 terms, 100 tests, 459 evaluations, 22 classes, 3 raw equations.
Depth 2: 333 terms, 100 tests, 12580 evaluations, 247 classes, 86 raw equations.
Depth 3: 35455 terms, 200 tests, 2252945 evaluations, 19889 classes, 15566 raw equations.
QuickSpec done, 19889 classes, 15566 equations.
Failed to prove optimize {- main inp0 == mainNew inp0 -}
Failed to prove var0_0 == var0_1
[034m[1mProved Null == var0_0 by induction on var0_0[0m using Z3
[034m[1mProved MakeTuple3 (fst3 var0_0) (snd3 var0_0) (third3 var0_0) == var0_0 by induction on var0_0[0m using Z3
[034m[1mProved tf3 (tf3 var0_0 var0_1) var0_2 == tf3 var0_0 (tf3 var0_1 var0_2) by induction on var0_2[0m using Z3
[034m[1mProved tf3 (Nil var0_0) var0_1 == var0_1 by induction on var0_1[0m using Z3
[034m[1mProved plus var0_0 var0_1 == plus var0_1 var0_0 by induction on var0_1,var0_0[0m using Z3
[034m[1mProved plus var0_0 (plus var0_1 var0_2) == plus var0_1 (plus var0_0 var0_2) by induction on var0_2[0m using Z3
[034m[1mProved lq var0_0 var0_0 == False by induction on var0_0[0m using Z3
[034mProved lq var0_0 Zero == False without induction[0m using Z3
[034m[1mProved lq var0_0 (Succ var0_0) == True by induction on var0_0[0m using Z3
[034m[1mProved lq (Succ var0_0) var0_0 == False by induction on var0_0[0m using Z3
[034m[1mProved lq var0_0 (plus var0_0 var0_1) == lq Zero var0_1 by induction on var0_0[0m using Z3
[034m[1mProved lq (plus var0_0 var0_1) var0_0 == False by induction on var0_0[0m using Z3
[034m[1mProved lq (plus var0_0 var0_1) (plus var0_0 var0_2) == lq var0_1 var0_2 by induction on var0_2[0m using Z3
Failed to prove lq Zero (plus var0_0 var0_1) == True
[034m[1mProved lq (plus var0_0 var0_1) (Succ var0_1) == lq (plus var0_0 var0_2) (Succ var0_2) by induction on var0_1[0m using Z3
[034mProved lq (Succ var0_0) (plus var0_0 var0_1) == lq (Succ var0_2) (plus var0_2 var0_1) without induction[0m using Z3
[034m[1mProved lq (plus var0_0 var0_0) (plus var0_1 var0_1) == lq var0_0 var0_1 by induction on var0_0,var0_1[0m using Z3
Failed to prove lq (plus var0_0 var0_0) (Succ var0_1) == lq (plus var0_0 var0_0) var0_1
Failed to prove lq (plus var0_0 var0_1) (Succ Zero) == False
[034m[1mProved lq (plus var0_0 var0_0) (Succ Zero) == lq (plus var0_0 var0_1) (Succ var0_1) by induction on var0_1[0m using Z3
[034mProved lq (Succ Zero) (plus var0_0 var0_0) == lq Zero var0_0 without induction[0m using Z3
Failed to prove tf1 (Cons Zero var0_0) == tf1 var0_0
Failed to prove snd3 (tf1 var0_0) == third3 (tf1 var0_0)
Failed to prove fst3 (tf1 var0_0) == snd3 (tf1 var0_0)
Failed to prove tf0 (Cons Zero var0_0) == tf1 var0_0
Failed to prove tf1 (tf3 var0_0 var0_1) == tf1 (tf3 var0_1 var0_0)
Failed to prove tf0 (tf3 var0_0 var0_1) == tf1 (tf3 var0_1 var0_0)
Failed to prove main (Concat var0_0 var0_1) == main (Concat var0_1 var0_0)
[034mProved main (Cnil var0_0) == MakeTuple4 Zero Zero without induction[0m using Z3
Failed to prove main (Single var0_0) == MakeTuple4 var0_0 var0_0
[034mProved main (Single Zero) == MakeTuple4 Zero Zero without induction[0m using Z3
[034m[1mProved spec (Nil var0_0) == MakeTuple4 Zero Zero by induction on var0_0[0m using Z3
Failed to prove spec (Cons Zero var0_0) == spec var0_0
Failed to prove spec (tf3 var0_0 var0_1) == spec (tf3 var0_1 var0_0)
[034mProved spec (tf5 var0_0) == main var0_0 without induction[0m using Z3
Failed to prove tf7 (Concat var0_0 var0_1) == tf7 (Concat var0_1 var0_0)
[034mProved tf7 (Single var0_0) == MakeTuple3 var0_0 var0_0 var0_0 without induction[0m using Z3
[034m[1mProved snd3 (tf7 var0_0) == third3 (tf7 var0_0) by induction on var0_0[0m using Z3
Failed to prove fst3 (tf7 var0_0) == snd3 (tf7 var0_0)
Failed to prove tf1 (tf5 var0_0) == tf7 var0_0
Failed to prove tf6 (Concat var0_0 var0_1) == tf7 (Concat var0_1 var0_0)
Failed to prove reprNew (Concat var0_0 var0_1) == tf7 (Concat var0_1 var0_0)
